\ This file has been generated by DOcplex
\ ENCODING=ISO-8859-1
\Problem name: random_problem.lp

Minimize
 obj: 216 x0 + 108 x1 - 66 x2 - 33 x3 + 686 x4 + 343 x5 - 78 x6 - 39 x7 + 328 x8
      + 164 x9 + [ 1144 x0^2 + 1144 x0*x1 + 64 x0*x2 + 32 x0*x3 + 1424 x0*x4
      + 712 x0*x5 + 464 x0*x6 + 232 x0*x7 + 560 x0*x8 + 280 x0*x9 + 286 x1^2
      + 32 x1*x2 + 16 x1*x3 + 712 x1*x4 + 356 x1*x5 + 232 x1*x6 + 116 x1*x7
      + 280 x1*x8 + 140 x1*x9 + 296 x2^2 + 296 x2*x3 + 432 x2*x4 + 216 x2*x5
      + 336 x2*x6 + 168 x2*x7 + 640 x2*x8 + 320 x2*x9 + 74 x3^2 + 216 x3*x4
      + 108 x3*x5 + 168 x3*x6 + 84 x3*x7 + 320 x3*x8 + 160 x3*x9 + 1352 x4^2
      + 1352 x4*x5 + 560 x4*x6 + 280 x4*x7 + 608 x4*x8 + 304 x4*x9 + 338 x5^2
      + 280 x5*x6 + 140 x5*x7 + 304 x5*x8 + 152 x5*x9 + 432 x6^2 + 432 x6*x7
      + 256 x6*x8 + 128 x6*x9 + 108 x7^2 + 128 x7*x8 + 64 x7*x9 + 1128 x8^2
      + 1128 x8*x9 + 282 x9^2 ]/2
Subject To
 c0: 2 x0 + x1 + 2 x2 + x3 + 2 x4 + x5 + 2 x6 + x7 + 2 x8 + x9 = 3

Bounds
 0 <= x0 <= 1
 0 <= x1 <= 1
 0 <= x2 <= 1
 0 <= x3 <= 1
 0 <= x4 <= 1
 0 <= x5 <= 1
 0 <= x6 <= 1
 0 <= x7 <= 1
 0 <= x8 <= 1
 0 <= x9 <= 1

Binaries
 x0 x1 x2 x3 x4 x5 x6 x7 x8 x9
End
